unsat
(:added-eqs                   7378
 :arith-eq-adapter            137
 :arith-bound-propagations-lp 1032
 :arith-branch                5187
 :arith-conflicts             4604
 :arith-cube-calls            2468
 :arith-diseq                 4443
 :arith-fixed-eqs             2585
 :arith-gcd-calls             9928
 :arith-gcd-conflict          51
 :arith-gomory-cuts           7748
 :arith-hnf-calls             12
 :arith-lower                 170052
 :arith-make-feasible         43342
 :arith-max-columns           113
 :arith-max-rows              70
 :arith-nla-propagate-bounds  4
 :arith-offset-eqs            1267
 :arith-patches               9877
 :arith-patches-success       4
 :arith-upper                 191584
 :binary-propagations         271790
 :conflicts                   4626
 :decisions                   20223
 :del-clause                  10505
 :final-checks                9928
 :max-memory                  26.00
 :memory                      18.21
 :minimized-lits              764
 :mk-bool-var                 13081
 :mk-clause                   11655
 :mk-clause-binary            9370
 :num-allocs                  6247594766.00
 :num-checks                  1
 :propagations                341464
 :restarts                    36
 :rlimit-count                2175142
 :time                        5.19
 :total-time                  5.05)
